%Mem=28GB
%NoSave
%NProcShared=16
%Chk=AC.chk

# opt freq rb3lyp/6-311++g(d,p)

Title

0 1
N          0.77318       -0.33046        0.51635
C          2.19846       -0.24062        0.17562
C          2.98090        0.55714        1.24000
N          4.46409        0.58307        1.11616
C          4.94691        1.50150        0.05610
C          4.80225        1.01263       -1.39991
N          5.56582        1.85579       -2.32744
C          5.00042        1.01125        2.44343
C          6.53252        0.91908        2.63423
N          6.92231        1.33986        3.98603
H          0.28253       -0.81665       -0.23333
H          0.37203        0.60488        0.56119
H          2.25248        0.23678       -0.80059
H          2.60737       -1.25200        0.08580
H          2.72624        0.07930        2.19604
H          2.58906        1.58095        1.29777
H          6.02290        1.65141        0.18801
H          4.48542        2.49168        0.16572
H          3.76405        1.05182       -1.72829
H          5.15509       -0.02012       -1.48933
H          5.20092        2.80691       -2.30280
H          5.41951        1.51871       -3.27847
H          4.56236        0.36786        3.21948
H          4.66928        2.03668        2.65997
H          7.06668        1.56020        1.92892
H          6.86502       -0.11127        2.47199
H          6.67239        2.31750        4.12115
H          7.93782        1.29430        4.06504

